# Objective value = 4970.62
I_0_0 1583
I_0_1 2003
I_0_2 1721
I_0_3 2.2059999999999995e+03
I_1_0 14
I_1_1 3.1086244689504383e-15
I_1_2 14
I_1_3 3.1086244689504383e-15
I_2_0 75
I_2_1 75
I_2_2 0
I_2_3 75
I_3_0 126
I_3_1 126
I_3_2 6.3000000000000021e+01
I_3_3 2.0428103653102880e-14
I_4_0 84
I_4_1 42
I_4_2 84
I_4_3 4.1999999999999993e+01
I_5_0 77
I_5_1 77
I_5_2 77
I_5_3 1.2823075934420558e-14
I_6_0 86
I_6_1 43
I_6_2 86
I_6_3 43
I_7_0 69
I_7_1 0
I_7_2 69
I_7_3 0
I_8_0 87
I_8_1 0
I_8_2 87
I_8_3 0
I_9_0 172
I_9_1 86
I_9_2 172
I_9_3 86
I_10_0 158
I_10_1 79
I_10_2 158
I_10_3 7.9000000000000014e+01
q_1_0 3.1086244689504383e-15
q_1_1 2.7999999999999996e+01
q_1_2 3.1086244689504383e-15
q_2_0 75
q_2_1 0
q_2_2 150
q_3_0 63
q_3_1 -5.7731597280508140e-15
q_3_2 0
q_4_0 2.3314683517128287e-15
q_4_1 84
q_4_2 0
q_5_0 77
q_5_1 77
q_5_2 1.2823075934420558e-14
q_6_0 0
q_6_1 86
q_6_2 0
q_7_0 0
q_7_1 138
q_7_2 0
q_8_0 0
q_8_1 174
q_8_2 0
q_9_0 0
q_9_1 172
q_9_2 0
q_10_0 0
q_10_1 158
q_10_2 0
y_0_0 1
y_0_1 1
y_0_2 1
y_1_0 2.2204460492503131e-16
y_1_1 1
y_1_2 2.2204460492503131e-16
y_2_0 1
y_2_1 0
y_2_2 1
y_3_0 1
y_3_1 0
y_3_2 0
y_4_0 5.5511151231257827e-17
y_4_1 1
y_4_2 0
y_5_0 1
y_5_1 1
y_5_2 1.6653345369377348e-16
y_6_0 0
y_6_1 1
y_6_2 0
y_7_0 0
y_7_1 1
y_7_2 0
y_8_0 0
y_8_1 1
y_8_2 0
y_9_0 0
y_9_1 1
y_9_2 0
y_10_0 0
y_10_1 1
y_10_2 0
x_0_1_0 0
x_0_1_1 3.3306690738754696e-16
x_0_1_2 0
x_0_2_0 9.9999999999999978e-01
x_0_2_1 0
x_0_2_2 2
x_0_3_0 -5.5511151231257827e-17
x_0_3_1 0
x_0_3_2 0
x_0_4_0 0
x_0_4_1 1
x_0_4_2 0
x_0_5_0 1.0000000000000002e+00
x_0_5_1 1
x_0_5_2 0
x_0_6_0 0
x_0_6_1 0
x_0_6_2 0
x_0_7_0 0
x_0_7_1 0
x_0_7_2 0
x_0_8_0 0
x_0_8_1 1.1796119636642288e-16
x_0_8_2 0
x_0_9_0 0
x_0_9_1 0
x_0_9_2 0
x_0_10_0 0
x_0_10_1 0
x_0_10_2 0
x_1_2_0 0
x_1_2_1 0
x_1_2_2 0
x_1_3_0 2.2204460492503131e-16
x_1_3_1 0
x_1_3_2 3.3306690738754696e-16
x_1_4_0 0
x_1_4_1 0
x_1_4_2 0
x_1_5_0 2.4980018054066022e-16
x_1_5_1 1
x_1_5_2 -1.1102230246251565e-16
x_1_6_0 0
x_1_6_1 0
x_1_6_2 0
x_1_7_0 0
x_1_7_1 0
x_1_7_2 0
x_1_8_0 0
x_1_8_1 9.9999999999999989e-01
x_1_8_2 2.4980018054066022e-16
x_1_9_0 -2.7755575615628914e-17
x_1_9_1 0
x_1_9_2 1.6653345369377348e-16
x_1_10_0 0
x_1_10_1 0
x_1_10_2 0
x_2_3_0 1.0000000000000002e+00
x_2_3_1 0
x_2_3_2 0
x_2_4_0 0
x_2_4_1 0
x_2_4_2 0
x_2_5_0 0
x_2_5_1 0
x_2_5_2 0
x_2_6_0 0
x_2_6_1 0
x_2_6_2 0
x_2_7_0 0
x_2_7_1 0
x_2_7_2 0
x_2_8_0 0
x_2_8_1 0
x_2_8_2 0
x_2_9_0 0
x_2_9_1 0
x_2_9_2 0
x_2_10_0 0
x_2_10_1 0
x_2_10_2 0
x_3_4_0 1.1102230246251565e-16
x_3_4_1 0
x_3_4_2 0
x_3_5_0 9.9999999999999933e-01
x_3_5_1 0
x_3_5_2 1.6653345369377348e-16
x_3_6_0 0
x_3_6_1 0
x_3_6_2 0
x_3_7_0 0
x_3_7_1 0
x_3_7_2 0
x_3_8_0 0
x_3_8_1 0
x_3_8_2 0
x_3_9_0 -2.7755575615628914e-17
x_3_9_1 0
x_3_9_2 0
x_3_10_0 0
x_3_10_1 0
x_3_10_2 0
x_4_5_0 0
x_4_5_1 0
x_4_5_2 0
x_4_6_0 0
x_4_6_1 1
x_4_6_2 0
x_4_7_0 0
x_4_7_1 0
x_4_7_2 0
x_4_8_0 0
x_4_8_1 -1.1796119636642288e-16
x_4_8_2 0
x_4_9_0 0
x_4_9_1 0
x_4_9_2 0
x_4_10_0 0
x_4_10_1 0
x_4_10_2 0
x_5_6_0 0
x_5_6_1 0
x_5_6_2 0
x_5_7_0 0
x_5_7_1 0
x_5_7_2 0
x_5_8_0 0
x_5_8_1 0
x_5_8_2 0
x_5_9_0 0
x_5_9_1 0
x_5_9_2 -5.5511151231257827e-17
x_5_10_0 0
x_5_10_1 0
x_5_10_2 0
x_6_7_0 0
x_6_7_1 1
x_6_7_2 0
x_6_8_0 0
x_6_8_1 0
x_6_8_2 0
x_6_9_0 5.5511151231257827e-17
x_6_9_1 0
x_6_9_2 0
x_6_10_0 -5.5511151231257827e-17
x_6_10_1 0
x_6_10_2 0
x_7_8_0 0
x_7_8_1 0
x_7_8_2 0
x_7_9_0 0
x_7_9_1 0
x_7_9_2 0
x_7_10_0 0
x_7_10_1 1
x_7_10_2 0
x_8_9_0 0
x_8_9_1 1
x_8_9_2 -8.3266726846886741e-17
x_8_10_0 0
x_8_10_1 0
x_8_10_2 0
x_9_10_0 0
x_9_10_1 1
x_9_10_2 0
